Route #1: 149 140 63 85 89 2 26 90 163 95 51 52 152
Route #2: 55 71 23 165 144 124 176 98 130 73 67 114
Route #3: 17 24 179 135 5 105 62 86 64 54 111 43 10 115 138
Route #4: 47 157 122 27 29 42 84 116 131 92 169 61 65 32 44 132
Route #5: 19 68 109 161 107 20 58 80 8 21 102 3 93 78 88
Route #6: 143 11 49 137 14 36 158 96 159 171 79 30 9 128 60 142
Route #7: 31 75 113 118 177 127 15 164 37 18 76 70 121 12 108 104
Route #8: 45 170 155 123 174 48 6 126 139 59 112 101 148
Route #9: 145 13 77 136 129 173 119 28 69 100 56 99 160 106 22 120
Route #10: 39 125 167 147 87 146 94 50 16 1 141 172 154 38 133 180
Route #11: 41 91 7 134 83 103 166 74 46 82 153 81 66 25 72 168
Route #12: 57 110 175 162 117 35 151 33 53 4 34 97 150 40 156 178
Cost 15603.000000